\ LP format - for model browsing. Use MPS format to capture full model detail.
Minimize
  0 a + 0 b + 0 c + 0 d + 0 e
Subject To
 c: g - h <= -3
 c: f <= -1
 c: 13 f + 64 g - 64 h >= 49
Bounds
 a free
 b free
 c free
 d free
 e free
 f free
 g free
 h free
End
